c Maximum weighted independent set instances generated from exactcolors.
c scalef: 38347922 .
c An independent set of value > 38347922 defines an improving stable sets for coloring.
p edge 56 110
e 1 2
e 1 4
e 1 13
e 1 15
e 2 3
e 2 12
e 2 14
e 3 6
e 3 13
e 3 17
e 4 5
e 4 12
e 4 16
e 5 8
e 5 15
e 5 19
e 6 7
e 6 14
e 6 18
e 7 10
e 7 17
e 7 21
e 8 9
e 8 16
e 8 20
e 9 11
e 9 19
e 9 22
e 10 11
e 10 18
e 10 22
e 11 20
e 11 21
e 12 24
e 12 26
e 13 23
e 13 25
e 14 24
e 14 28
e 15 23
e 15 27
e 16 26
e 16 30
e 17 25
e 17 29
e 18 28
e 18 32
e 19 27
e 19 31
e 20 30
e 20 33
e 21 29
e 21 33
e 22 31
e 22 32
e 23 35
e 23 37
e 24 34
e 24 36
e 25 35
e 25 39
e 26 34
e 26 38
e 27 37
e 27 41
e 28 36
e 28 40
e 29 39
e 29 43
e 30 38
e 30 42
e 31 41
e 31 44
e 32 40
e 32 44
e 33 42
e 33 43
e 34 46
e 34 48
e 35 45
e 35 47
e 36 46
e 36 50
e 37 45
e 37 49
e 38 48
e 38 52
e 39 47
e 39 51
e 40 50
e 40 54
e 41 49
e 41 53
e 42 52
e 42 55
e 43 51
e 43 55
e 44 53
e 44 54
e 45 56
e 46 56
e 47 56
e 48 56
e 49 56
e 50 56
e 51 56
e 52 56
e 53 56
e 54 56
e 55 56
n 1 2137127
n 2 2137127
n 3 2137127
n 4 2137127
n 5 2137127
n 6 2137127
n 7 2137127
n 8 2137127
n 9 2137127
n 10 2137127
n 11 2137127
n 12 1780939
n 13 1780939
n 14 1780939
n 15 1780939
n 16 1780939
n 17 1780939
n 18 1780939
n 19 1780939
n 20 1780939
n 21 1780939
n 22 1780939
n 23 1484116
n 24 1484116
n 25 1484116
n 26 1484116
n 27 1484116
n 28 1484116
n 29 1484116
n 30 1484116
n 31 1484116
n 32 1484116
n 33 1484116
n 34 1236763
n 35 1236763
n 36 1236763
n 37 1236763
n 38 1236763
n 39 1236763
n 40 1236763
n 41 1236763
n 42 1236763
n 43 1236763
n 44 1236763
n 45 1030636
n 46 1030636
n 47 1030636
n 48 1030636
n 49 1030636
n 50 1030636
n 51 1030636
n 52 1030636
n 53 1030636
n 54 1030636
n 55 1030636
n 56 5153182
